p cnf 12 50 
7 5 -10 0
9 -3 11 0
10 -9 8 0
-3 -2 -11 0
3 -9 -2 0
-12 9 4 0
3 9 -7 0
-1 2 -8 0
12 6 -11 0
-1 -4 8 0
-10 -3 -12 0
-6 -1 -5 0
-4 -12 3 0
12 -11 10 0
-3 10 -8 0
1 -5 -4 0
-7 -12 9 0
10 1 8 0
-11 -2 -8 0
-5 -10 2 0
1 11 -12 0
11 3 -12 0
-10 11 -5 0
-4 10 11 0
-7 6 11 0
4 -9 5 0
-10 7 11 0
-9 -8 -3 0
-6 8 12 0
-1 -9 -11 0
6 -7 9 0
-2 -6 -7 0
-10 11 -8 0
-3 -10 7 0
-12 7 4 0
-10 -12 -1 0
10 5 -4 0
-6 -7 -11 0
9 -1 -11 0
9 -6 5 0
-2 -4 -7 0
9 -2 -1 0
-7 -10 -11 0
-12 5 2 0
7 3 4 0
-11 -6 -10 0
-6 -9 8 0
-10 -3 -4 0
-1 -6 -4 0
-8 -1 -3 0
